n = 20; m = 10; 

58	18	17	53	25	15	49	48	27	38	33	15	55	35	22	22	18	38	53	64
17	57	31	18	32	22	30	38	46	45	56	25	34	13	11	57	60	44	4	11
9	17	52	54	61	59	46	11	50	20	4	1	36	31	45	56	42	3	64	47
56	21	24	9	10	56	59	39	13	11	62	18	22	49	33	49	56	42	46	21
36	43	55	17	40	63	62	63	7	40	38	24	47	21	60	60	28	18	58	55
5	11	22	62	56	42	57	55	58	35	63	27	6	29	19	27	34	43	30	58 
6	41	6	43	61	55	33	57	45	23	40	20	23	8	7	60	17	4	27	46
74	91	25	76	62	74	44	8	58	9	55	36	39	46	8	36	46	14	23	65
4	56	90	9	3	2	4	55	6	33	8	92	25	12	46	60	83	3	21	12
9	17	52	54	61	59	46	11	50	20	4	1	36	31	45	56	42	3	64	47




																			
																			
																			
																			
																			
																			
																			
																			
																			
															
																			
																			
																			
																			
																			
																			
																			
																			
																			
															
